10 6 2
5 1 4 87 -2 5 44 6 44 1 3 51 2 3 18 4 18 1 2 96 
5 -2 5 68 6 68 2 2 54 3 54 1 2 53 3 2 20 3 20 4 20 1 4 92 
5 2 1 90 4 90 3 2 100 3 100 4 100 1 4 59 1 1 27 -2 5 94 6 94 
5 1 1 14 -2 5 72 6 72 1 4 41 1 2 52 1 4 23 
5 2 3 60 4 60 1 4 14 -2 5 42 6 42 1 1 23 1 1 15 
5 1 2 18 1 3 81 2 2 94 3 94 -2 5 30 6 30 1 4 93 
5 2 1 18 2 18 1 4 35 -2 5 56 6 56 1 4 87 3 1 62 3 62 4 62 
5 2 1 45 3 45 1 3 76 1 1 94 -2 5 12 6 12 1 4 87 
5 2 1 29 2 29 3 2 52 3 52 4 52 2 2 89 4 89 -2 5 44 6 44 3 1 92 2 92 4 92 
5 1 3 37 -2 5 96 6 96 1 2 70 1 1 34 1 1 27 
